param set_len = 24;
param target := 188688;
set values := 24388, 12553, 23186, 2827, 14887, 28335, 24240, 24439, 17175, 4714, 21587, 29607, 23648, 3685, 18278, 15419, 2325, 30908, 1950, 28590, 26553, 15130, 22029, 5891, ;
